<?xml version = "1.0" standalone="yes"?>
<!-- This file has been generated by DOcplex version 2.23.222  -->
<CPLEXSolution version="1.0">
 <header
   problemName="CVRP"
   objectiveValue="23398.1"
  />
 <variables>
  <variable name="x_0_4" index="3" value="1.00000"/>
  <variable name="x_0_5" index="4" value="1.00000"/>
  <variable name="x_0_7" index="6" value="1.00000"/>
  <variable name="x_0_13" index="12" value="1.00000"/>
  <variable name="x_0_15" index="14" value="1.00000"/>
  <variable name="x_0_17" index="16" value="1.00000"/>
  <variable name="x_0_18" index="17" value="1.00000"/>
  <variable name="x_0_19" index="18" value="1.00000"/>
  <variable name="x_0_20" index="19" value="1.00000"/>
  <variable name="x_0_22" index="21" value="1.00000"/>
  <variable name="x_0_23" index="22" value="1.00000"/>
  <variable name="x_0_25" index="24" value="1.00000"/>
  <variable name="x_0_26" index="25" value="1.00000"/>
  <variable name="x_0_27" index="26" value="1.00000"/>
  <variable name="x_0_28" index="27" value="1.00000"/>
  <variable name="x_1_0" index="30" value="1.00000"/>
  <variable name="x_2_0" index="60" value="1.00000"/>
  <variable name="x_3_0" index="90" value="1.00000"/>
  <variable name="x_4_0" index="120" value="1.00000"/>
  <variable name="x_5_21" index="170" value="1.00000"/>
  <variable name="x_6_0" index="180" value="1.00000"/>
  <variable name="x_7_10" index="219" value="1.00000"/>
  <variable name="x_8_0" index="240" value="1.00000"/>
  <variable name="x_9_0" index="270" value="1.00000"/>
  <variable name="x_10_30" index="329" value="1.00000"/>
  <variable name="x_11_3" index="333" value="1.00000"/>
  <variable name="x_12_2" index="362" value="1.00000"/>
  <variable name="x_13_0" index="390" value="1.00000"/>
  <variable name="x_14_11" index="431" value="1.00000"/>
  <variable name="x_15_29" index="478" value="1.00000"/>
  <variable name="x_16_0" index="480" value="1.00000"/>
  <variable name="x_17_8" index="518" value="1.00000"/>
  <variable name="x_18_1" index="541" value="1.00000"/>
  <variable name="x_19_0" index="570" value="1.00000"/>
  <variable name="x_20_0" index="600" value="1.00000"/>
  <variable name="x_21_24" index="653" value="1.00000"/>
  <variable name="x_22_12" index="672" value="1.00000"/>
  <variable name="x_23_0" index="690" value="1.00000"/>
  <variable name="x_24_0" index="720" value="1.00000"/>
  <variable name="x_25_16" index="766" value="1.00000"/>
  <variable name="x_26_0" index="780" value="1.00000"/>
  <variable name="x_27_14" index="824" value="1.00000"/>
  <variable name="x_28_6" index="846" value="1.00000"/>
  <variable name="x_29_9" index="879" value="1.00000"/>
  <variable name="x_30_0" index="900" value="1.00000"/>
  <variable name="u_1" index="930" value="56.00000"/>
  <variable name="u_2" index="931" value="51.00000"/>
  <variable name="u_3" index="932" value="56.00000"/>
  <variable name="u_4" index="933" value="48.00000"/>
  <variable name="u_5" index="934" value="8.00000"/>
  <variable name="u_6" index="935" value="56.00000"/>
  <variable name="u_7" index="936" value="21.00000"/>
  <variable name="u_8" index="937" value="53.00000"/>
  <variable name="u_9" index="938" value="55.00000"/>
  <variable name="u_10" index="939" value="42.00000"/>
  <variable name="u_11" index="940" value="53.00000"/>
  <variable name="u_12" index="941" value="27.00000"/>
  <variable name="u_13" index="942" value="48.00000"/>
  <variable name="u_14" index="943" value="30.00000"/>
  <variable name="u_15" index="944" value="12.00000"/>
  <variable name="u_16" index="945" value="56.00000"/>
  <variable name="u_17" index="946" value="7.00000"/>
  <variable name="u_18" index="947" value="53.00000"/>
  <variable name="u_19" index="948" value="56.00000"/>
  <variable name="u_20" index="949" value="49.00000"/>
  <variable name="u_21" index="950" value="20.00000"/>
  <variable name="u_22" index="951" value="2.00000"/>
  <variable name="u_23" index="952" value="38.00000"/>
  <variable name="u_24" index="953" value="56.00000"/>
  <variable name="u_25" index="954" value="22.00000"/>
  <variable name="u_26" index="955" value="51.00000"/>
  <variable name="u_27" index="956" value="19.00000"/>
  <variable name="u_28" index="957" value="35.00000"/>
  <variable name="u_29" index="958" value="43.00000"/>
  <variable name="u_30" index="959" value="53.00000"/>
 </variables>
</CPLEXSolution>
